$ https://krazydad.com/starbattle/tutorial/tutorial_10x10.php
$ basically one grid, with many "tutorial" steps

letting grid be 10
letting starcount be 2
letting numblocks be 10


letting blocks be 
[
    [1,1,1,1,1,7,7,8,8,8],
    [1,1,1,1,1,7,7,7,8,8],
    [1,1,1,1,1,7,7,7,7,7],
    [2,2,2,1,6,6,7,7,7,9],
    [2,3,3,3,6,6,7,7,9,9],
    [3,3,3,3,6,6,7,9,9,9],
    [3,3,3,3,3,5,7,9,9,9],
    [3,3,3,3,3,5,7,9,9,5],
    [4,4,4,5,5,5,5,5,5,5],
    [5,5,5,5,10,10,10,10,10,10],
]
